WARNING: for repeatability, setting FPU to use double precision
============================[ Problem Statistics ]=============================
|                                                                             |
|  Number of variables:           100                                         |
|  Number of clauses:             449                                         |
|  Parse time:                   0.00 s                                       |
|  Simplification time:          0.00 s                                       |
|                                                                             |
============================[ Search Statistics ]==============================
| Conflicts |          ORIGINAL         |          LEARNT          | Progress |
|           |    Vars  Clauses Literals |    Limit  Clauses Lit/Cl |          |
===============================================================================
===============================================================================
restarts              : 1
conflicts             : 43             (17515 /sec)
decisions             : 69             (0.00 % random) (28106 /sec)
propagations          : 1192           (485540 /sec)
conflict literals     : 280            (11.39 % deleted)
Memory used           : 13.00 MB
CPU time              : 0.002455 s

SATISFIABLE
